\* column_knapsack_problem *\
Minimize
knapsack: 5 col_1 + 25 col_10 + 26 col_11 + 23 col_12 + 24 col_13 + 26 col_14
 + 26 col_15 + 25 col_17 + 27 col_18 + 26 col_19 + 25 col_20 + 24 col_21
 + 25 col_22 + 4 col_23 + 24 col_24 + 25 col_25 + 22 col_26 + col_27
 + 5 col_29 + 25 col_3 + 25 col_30 + 23 col_31 + 24 col_32 + 24 col_33
 + 4 col_34 + 26 col_35 + 26 col_36 + 3 col_38 + 24 col_39 + 25 col_4
 + 2 col_40 + 24 col_41 + 2 col_42 + 26 col_43 + 4 col_44 + 4 col_45
 + 25 col_46 + 25 col_47 + 23 col_48 + 26 col_49 + 2 col_5 + 25 col_6
 + 26 col_7 + 25 col_8 + 2 col_9
Subject To
sensitivity: 30 col_1 + 10 col_10 + 9 col_11 + 12 col_12 + 11 col_13
 + 9 col_14 + 9 col_15 + 10 col_17 + 8 col_18 + 9 col_19 + 10 col_20
 + 11 col_21 + 10 col_22 + 31 col_23 + 11 col_24 + 10 col_25 + 13 col_26
 + 34 col_27 + 30 col_29 + 10 col_3 + 10 col_30 + 12 col_31 + 11 col_32
 + 11 col_33 + 31 col_34 + 9 col_35 + 9 col_36 + 32 col_38 + 11 col_39
 + 10 col_4 + 33 col_40 + 11 col_41 + 33 col_42 + 9 col_43 + 31 col_44
 + 31 col_45 + 10 col_46 + 10 col_47 + 12 col_48 + 9 col_49 + 33 col_5
 + 10 col_6 + 9 col_7 + 10 col_8 + 33 col_9 >= 71.7
Bounds
 col_1 <= 1
 col_10 <= 1
 col_11 <= 1
 col_12 <= 1
 col_13 <= 1
 col_14 <= 1
 col_15 <= 1
 col_17 <= 1
 col_18 <= 1
 col_19 <= 1
 col_20 <= 1
 col_21 <= 1
 col_22 <= 1
 col_23 <= 1
 col_24 <= 1
 col_25 <= 1
 col_26 <= 1
 col_27 <= 1
 col_29 <= 1
 col_3 <= 1
 col_30 <= 1
 col_31 <= 1
 col_32 <= 1
 col_33 <= 1
 col_34 <= 1
 col_35 <= 1
 col_36 <= 1
 col_38 <= 1
 col_39 <= 1
 col_4 <= 1
 col_40 <= 1
 col_41 <= 1
 col_42 <= 1
 col_43 <= 1
 col_44 <= 1
 col_45 <= 1
 col_46 <= 1
 col_47 <= 1
 col_48 <= 1
 col_49 <= 1
 col_5 <= 1
 col_6 <= 1
 col_7 <= 1
 col_8 <= 1
 col_9 <= 1
End
